50
2995 264
202 233
981 848
1346 408
781 670
1009 1001
2927 1777
2982 949
555 1121
464 1302
3452 637
571 1982
2656 128
1623 1723
2067 694
1725 927
3600 459
1109 1196
366 339
778 1282
386 1616
3918 1217
3332 1049
2597 349
811 1295
241 1069
2658 360
394 1944
3786 1862
264 36
2050 1833
3538 125
1646 1817
2993 624
547 25
3373 1902
460 267
3060 781
1828 456
1021 962
2347 388
3535 1112
1529 581
1203 385
1787 1902
2740 1101
555 1753
47 363
3935 540
3062 329
